50
18237

80 492
364 780
516 228
813 257
978 687
37 311
244 560
505 98
185 378
231 324
576 209
570 696
97 660
525 850
664 346
574 6
760 761
487 549
160 83
794 738
533 17
309 44
25 125
467 886
592 187
37 877
471 519
949 448
708 293
686 288
6 175
114 350
262 295
855 802
972 812
446 831
474 459
375 511
564 136
214 511
375 558
415 758
846 943
132 515
226 947
186 793
823 550
417 588
102 878
549 574
